p cnf 73 24
-25 26 27 28 29 30 32 33 34 0
25 -32 0
25 -33 0
25 -34 0
-10 -31 0
10 22 24 31 0
21 22 23 24 34 0
-9 10 22 32 0
9 10 24 33 0
9 -10 23 30 0
-35 -40 0
-23 -34 0
-21 -34 0
-9 -33 0
25 -30 0
-24 -33 0
-22 -32 0
9 -32 0
-24 -31 0
-22 -31 0
-24 -34 0
-22 -34 0
-10 -33 0
-10 -32 0
